(set-logic HORN)
(declare-fun state (Int Int Int (Array Int Int) (Array Int Int) Int Int (Array Int Int) (Array Int Int) Int Int Int Int Int Int Int Int Int Int Int Int Int Int Int Int Int Int Int Int Int Int Int Int Int Int Int Int Int Int Int Int Int Int Int Int Int Int Int Int Int Int Int Int Bool Bool Bool Int) Bool)
(assert (forall ((|A_3| Int) (|B_3| Int) (|C_3| Int) (|D_3| (Array Int Int)) (|E_3| (Array Int Int)) (|F_3| Int) (|G_3| Int) (|H_3| (Array Int Int)) (|I_3| (Array Int Int)) (|J_3| Int) (|K_3| Int) (|L_3| Int) (|M_3| Int) (|N_3| Int) (|O_3| Int) (|P_3| Int) (|Q_3| Int) (|R_3| Int) (|S_3| Int) (|T_3| Int) (|U_3| Int) (|V_3| Int) (|W_3| Int) (|X_3| Int) (|Y_3| Int) (|Z_3| Int) (|A1_3| Int) (|B1_3| Int) (|C1_3| Int) (|D1_3| Int) (|C2_2| Int) (|F1_3| Int) (|G1_3| Int) (|H1_3| Int) (|I1_3| Int) (|J1_3| Int) (|K1_3| Int) (|L1_3| Int) (|M1_3| Int) (|N1_3| Int) (|O1_3| Int) (|P1_3| Int) (|Q1_3| Int) (|R1_3| Int) (|S1_3| Int) (|T1_3| Int) (|U1_3| Int) (|V1_3| Int) (|W1_3| Int) (|X1_3| Int) (|Y1_3| Int) (|Z1_3| Int) (|A2_3| Int) (|B2_3| Bool) (|.loc.3| Bool) (|.loc.4| Bool) (|C2_1| Int) (|.x.472| Int) (|.x.470| Int) (|.x.458| Int) (|.x.448| Int) (|.x.446| Int) (|.x.444| Int) (|.x.442| (Array Int Int)) (|.x.440| Int) (|.x.438| (Array Int Int)) (|.x.435| Int) (|.x.436| Int) (|.x.443| Int) (|.x.474| Int) (|.x.437| (Array Int Int)) (|.x.441| (Array Int Int)) (|.x.451| Int) (|.x.475| Int) (|.x.456| Int) (|.x.459| Int) (|.x.460| Int) (|.x.466| Int) (|.x.464| Int) (|.x.469| Int) (|.x.479| Int) (|.x.452| Int) (|.x.483| Int) (|.x.461| Int) (|.x.457| Int) (|B2_8| Bool) (|.x.450| Int) (|.x.471| Int) (|.x.480| Int) (|.x.484| Int) (|.x.453| Int) (|.x.486| Int) (|.loc.5| Bool) (|.x.434| Int) (|.x.439| Int) (|.x.445| Int) (|.x.447| Int) (|.x.449| Int) (|.x.454| Int) (|.x.455| Int) (|.x.462| Int) (|.x.463| Int) (|.x.465| Int) (|.x.467| Int) (|.x.468| Int) (|.x.473| Int) (|.x.476| Int) (|.x.477| Int) (|.x.478| Int) (|.x.481| Int) (|.x.482| Int) (|.loc.6| Bool) (|.x.485| Int) (|.xtv.1| Int)) (=> (and (and (not .loc.3) (not .loc.4)) (and (and (and (and (and (and (and (= H_3 I_3) (not B2_3)) (= A_3 B_3)) (= F_3 G_3)) (= J_3 K_3)) (= L_3 M_3)) (= D_3 E_3)) (= N_3 O_3))) (state |A_3| |B_3| |C_3| |D_3| |E_3| |F_3| |G_3| |H_3| |I_3| |J_3| |K_3| |L_3| |M_3| |N_3| |O_3| |P_3| |Q_3| |R_3| |S_3| |T_3| |U_3| |V_3| |W_3| |X_3| |Y_3| |Z_3| |A1_3| |B1_3| |C1_3| |D1_3| |C2_2| |F1_3| |G1_3| |H1_3| |I1_3| |J1_3| |K1_3| |L1_3| |M1_3| |N1_3| |O1_3| |P1_3| |Q1_3| |R1_3| |S1_3| |T1_3| |U1_3| |V1_3| |W1_3| |X1_3| |Y1_3| |Z1_3| |A2_3| |B2_3| |.loc.3| |.loc.4| |C2_1|))))
(assert (forall ((|A_3| Int) (|B_3| Int) (|C_3| Int) (|D_3| (Array Int Int)) (|E_3| (Array Int Int)) (|F_3| Int) (|G_3| Int) (|H_3| (Array Int Int)) (|I_3| (Array Int Int)) (|J_3| Int) (|K_3| Int) (|L_3| Int) (|M_3| Int) (|N_3| Int) (|O_3| Int) (|P_3| Int) (|Q_3| Int) (|R_3| Int) (|S_3| Int) (|T_3| Int) (|U_3| Int) (|V_3| Int) (|W_3| Int) (|X_3| Int) (|Y_3| Int) (|Z_3| Int) (|A1_3| Int) (|B1_3| Int) (|C1_3| Int) (|D1_3| Int) (|C2_2| Int) (|F1_3| Int) (|G1_3| Int) (|H1_3| Int) (|I1_3| Int) (|J1_3| Int) (|K1_3| Int) (|L1_3| Int) (|M1_3| Int) (|N1_3| Int) (|O1_3| Int) (|P1_3| Int) (|Q1_3| Int) (|R1_3| Int) (|S1_3| Int) (|T1_3| Int) (|U1_3| Int) (|V1_3| Int) (|W1_3| Int) (|X1_3| Int) (|Y1_3| Int) (|Z1_3| Int) (|A2_3| Int) (|B2_3| Bool) (|.loc.3| Bool) (|.loc.4| Bool) (|C2_1| Int) (|.x.472| Int) (|.x.470| Int) (|.x.458| Int) (|.x.448| Int) (|.x.446| Int) (|.x.444| Int) (|.x.442| (Array Int Int)) (|.x.440| Int) (|.x.438| (Array Int Int)) (|.x.435| Int) (|.x.436| Int) (|.x.443| Int) (|.x.474| Int) (|.x.437| (Array Int Int)) (|.x.441| (Array Int Int)) (|.x.451| Int) (|.x.475| Int) (|.x.456| Int) (|.x.459| Int) (|.x.460| Int) (|.x.466| Int) (|.x.464| Int) (|.x.469| Int) (|.x.479| Int) (|.x.452| Int) (|.x.483| Int) (|.x.461| Int) (|.x.457| Int) (|B2_8| Bool) (|.x.450| Int) (|.x.471| Int) (|.x.480| Int) (|.x.484| Int) (|.x.453| Int) (|.x.486| Int) (|.loc.5| Bool) (|.x.434| Int) (|.x.439| Int) (|.x.445| Int) (|.x.447| Int) (|.x.449| Int) (|.x.454| Int) (|.x.455| Int) (|.x.462| Int) (|.x.463| Int) (|.x.465| Int) (|.x.467| Int) (|.x.468| Int) (|.x.473| Int) (|.x.476| Int) (|.x.477| Int) (|.x.478| Int) (|.x.481| Int) (|.x.482| Int) (|.loc.6| Bool) (|.x.485| Int) (|.xtv.1| Int)) (=> (and (state |A_3| |B_3| |C_3| |D_3| |E_3| |F_3| |G_3| |H_3| |I_3| |J_3| |K_3| |L_3| |M_3| |N_3| |O_3| |P_3| |Q_3| |R_3| |S_3| |T_3| |U_3| |V_3| |W_3| |X_3| |Y_3| |Z_3| |A1_3| |B1_3| |C1_3| |D1_3| |C2_2| |F1_3| |G1_3| |H1_3| |I1_3| |J1_3| |K1_3| |L1_3| |M1_3| |N1_3| |O1_3| |P1_3| |Q1_3| |R1_3| |S1_3| |T1_3| |U1_3| |V1_3| |W1_3| |X1_3| |Y1_3| |Z1_3| |A2_3| |B2_3| |.loc.3| |.loc.4| |C2_1|) (let ((.def_67 (not .loc.3))) (let ((.def_68 (not .loc.4))) (let ((.def_120 (= .x.443 1))) (let ((.def_186 (and (= (store D_3 .x.474 1) .x.437) (and (= (store H_3 .x.474 100) .x.441) (and (= (select D_3 .x.474) 0) (and (= .x.451 .x.475) (and (= .x.456 .x.459) (and (= .x.460 .x.466) (and (= .x.474 .x.466) (and (= .x.456 .x.464) (and (= .x.469 .x.479) (and (not (= .x.474 0)) (and (= .x.475 99) (and (= .x.479 .x.452) (and (= .x.483 0) (and (= .x.460 .x.461) (and (= .x.459 .x.457) (and (= .x.452 .x.483) (and (<= (- 2147483648) .x.464) (and (not (<= .x.474 .x.436)) (<= .x.464 2147483647))))))))))))))))))))) (let ((.def_189 (or B2_3 (= H1_3 .x.464)))) (let ((.def_193 (= Q_3 .x.450))) (let ((.def_196 (= L1_3 .x.471))) (let ((.def_199 (= U1_3 .x.480))) (let ((.def_202 (= Y1_3 .x.484))) (let ((.def_242 (= B2_3 B2_8))) (let ((.def_246 (= T1_3 .x.479))) (let ((.def_248 (= P1_3 .x.475))) (let ((.def_251 (= J1_3 .x.469))) (let ((.def_255 (= B1_3 .x.461))) (let ((.def_257 (= A1_3 .x.460))) (let ((.def_259 (= Z_3 .x.459))) (let ((.def_261 (= X_3 .x.457))) (let ((.def_265 (= R_3 .x.451))) (let ((.def_281 (not .loc.5))) (let ((.def_285 (= A_3 .x.434))) (let ((.def_287 (= F_3 .x.439))) (let ((.def_289 (= J_3 .x.443))) (let ((.def_292 (= L_3 .x.445))) (let ((.def_295 (= N_3 .x.447))) (let ((.def_298 (= P_3 .x.449))) (let ((.def_301 (= U_3 .x.454))) (let ((.def_304 (= V_3 .x.455))) (let ((.def_307 (= C1_3 .x.462))) (let ((.def_310 (= D1_3 .x.463))) (let ((.def_313 (= F1_3 .x.465))) (let ((.def_316 (= H1_3 .x.467))) (let ((.def_319 (= I1_3 .x.468))) (let ((.def_322 (= N1_3 .x.473))) (let ((.def_325 (= Q1_3 .x.476))) (let ((.def_328 (= R1_3 .x.477))) (let ((.def_331 (= S1_3 .x.478))) (let ((.def_334 (= V1_3 .x.481))) (let ((.def_337 (= W1_3 .x.482))) (let ((.def_346 (= .x.434 0))) (let ((.def_349 (and (= .x.439 0) (and (not (<= C_3 .x.434)) (not .def_346))))) (let ((.def_351 (= .x.445 0))) (let ((.def_353 (= .x.447 0))) (let ((.def_357 (= (ite .def_346 0 (select D_3 .x.434)) 0))) (let ((.def_361 (= .x.441 (store H_3 .x.434 8)))) (let ((.def_365 (= .x.437 (store (store D_3 0 0) .x.434 1)))) (let ((.def_368 (<= .x.467 0))) (let ((.def_385 (and (not .loc.6) (and .def_265 (and .def_261 (and .def_259 (and .def_257 (and .def_255 (and .def_251 (and .def_248 (and .def_246 (and .def_242 (and .def_67 (and .loc.5 (and .def_68 .def_196))))))))))))))) (let ((.def_412 (or B2_8 (and (and (and (and (and (and (and (= .x.434 .x.477) (and (= .x.465 .x.478) (and (= .x.477 .x.481) (and (= .x.455 .x.467) (and (= .x.463 .x.473) (and (= .x.449 .x.476) (= .x.454 0))))))) (= .x.458 .x.476)) (= .x.472 .x.473)) (= .x.468 .x.482)) (= .x.470 .x.482)) (= .x.447 .x.465)) (= .x.454 .x.462))))) (let ((.def_415 (= T_3 .x.453))) (let ((.def_418 (= Z1_3 .x.485))) (and (and (= M1_3 .x.472) (and (= K1_3 .x.470) (and (= Y_3 .x.458) (and (= O_3 .x.448) (and (= M_3 .x.446) (and (= K_3 .x.444) (and (= I_3 .x.442) (and (= G_3 .x.440) (and (= E_3 .x.438) (and (= B_3 .x.435) (= C_3 .x.436))))))))))) (or (or (or (and (or (and (or (and .def_68 (and .loc.3 (and (or B2_3 (not .def_120)) (and (or B2_3 .def_186) (and (and (and (and (and .def_189 B2_8) .def_193) .def_196) .def_199) .def_202))))) (and (or B2_3 (and (<= .x.453 2147483647) (<= (- 2147483648) .x.453))) (and (= D_3 .x.437) (and (= H_3 .x.441) (and (and (= S_3 .x.452) (and (= W_3 .x.456) (and (and (and (and (and (= C2_2 .x.464) (and (= G1_3 .x.466) (and (and (= O1_3 .x.474) (and (and (and (= X1_3 .x.483) (and (= A2_3 .x.486) (and (and (or B2_8 (and (= .x.450 (ite (<= (+ .x.453 (* (- 4294967296) (to_int (* (/ 1 4294967296) (to_real .x.453))))) 2147483647) (+ .x.453 (* (- 4294967296) (to_int (* (/ 1 4294967296) (to_real .x.453))))) (+ (- 4294967296) (+ .x.453 (* (- 4294967296) (to_int (* (/ 1 4294967296) (to_real .x.453)))))))) (= .x.480 0))) (and (and .loc.4 .def_67) (or B2_8 (= .x.471 .x.480)))) .def_242))) .def_246) .def_248)) .def_251))) .def_255) .def_257) .def_259) .def_261))) .def_265))))) .loc.5) (and (and .def_68 (and .loc.3 (and .def_202 (and .def_199 (and .def_196 (and .def_193 (and .def_189 (and B2_3 B2_8)))))))) .def_281)) (and (and (and (and (and (and (and (and (and (and (and (and (and (and (and (and (and (and (and .def_285 .def_287) .def_289) .def_292) .def_295) .def_298) .def_301) .def_304) .def_307) .def_310) .def_313) .def_316) .def_319) .def_322) .def_325) .def_328) .def_331) .def_334) .def_337) .loc.6)) (and (and (and (or B2_3 (and (and (and (and (and (and (= C2_1 0) .def_349) .def_351) .def_353) .def_357) .def_361) .def_365)) (and (and (or B2_8 (and .def_120 (not .def_368))) .def_385) .def_412)) .def_415) .def_418)) (and (or B2_3 (and .def_365 (and .def_361 (and .def_357 (and .def_353 (and .def_351 (and .def_349 (= .x.443 0)))))))) (and (or B2_8 .def_368) (and .def_418 (and .def_415 (and .def_385 .def_412)))))) (and (or .def_186 B2_8) (and (or .def_120 B2_8) (and .def_281 (and .def_242 (and .loc.6 (and .def_68 (and .loc.3 (and .def_202 (and .def_337 (and .def_334 (and .def_199 (and .def_331 (and .def_328 (and .def_325 (and .def_322 (and .def_196 (and .def_319 (and .def_316 (and .def_313 (and .def_310 (and .def_307 (and .def_304 (and .def_301 (and .def_193 (and .def_298 (and .def_295 (and .def_292 (and .def_289 (and .def_287 (and .def_189 .def_285))))))))))))))))))))))))))))))))))))))))))))))))))))))))))))))))))))))))))))))))))) (state |.x.434| |.x.435| |.x.436| |.x.437| |.x.438| |.x.439| |.x.440| |.x.441| |.x.442| |.x.443| |.x.444| |.x.445| |.x.446| |.x.447| |.x.448| |.x.449| |.x.450| |.x.451| |.x.452| |.x.453| |.x.454| |.x.455| |.x.456| |.x.457| |.x.458| |.x.459| |.x.460| |.x.461| |.x.462| |.x.463| |.x.464| |.x.465| |.x.466| |.x.467| |.x.468| |.x.469| |.x.470| |.x.471| |.x.472| |.x.473| |.x.474| |.x.475| |.x.476| |.x.477| |.x.478| |.x.479| |.x.480| |.x.481| |.x.482| |.x.483| |.x.484| |.x.485| |.x.486| |B2_8| |.loc.5| |.loc.6| |.xtv.1|))))
(assert (forall ((|A_3| Int) (|B_3| Int) (|C_3| Int) (|D_3| (Array Int Int)) (|E_3| (Array Int Int)) (|F_3| Int) (|G_3| Int) (|H_3| (Array Int Int)) (|I_3| (Array Int Int)) (|J_3| Int) (|K_3| Int) (|L_3| Int) (|M_3| Int) (|N_3| Int) (|O_3| Int) (|P_3| Int) (|Q_3| Int) (|R_3| Int) (|S_3| Int) (|T_3| Int) (|U_3| Int) (|V_3| Int) (|W_3| Int) (|X_3| Int) (|Y_3| Int) (|Z_3| Int) (|A1_3| Int) (|B1_3| Int) (|C1_3| Int) (|D1_3| Int) (|C2_2| Int) (|F1_3| Int) (|G1_3| Int) (|H1_3| Int) (|I1_3| Int) (|J1_3| Int) (|K1_3| Int) (|L1_3| Int) (|M1_3| Int) (|N1_3| Int) (|O1_3| Int) (|P1_3| Int) (|Q1_3| Int) (|R1_3| Int) (|S1_3| Int) (|T1_3| Int) (|U1_3| Int) (|V1_3| Int) (|W1_3| Int) (|X1_3| Int) (|Y1_3| Int) (|Z1_3| Int) (|A2_3| Int) (|B2_3| Bool) (|.loc.3| Bool) (|.loc.4| Bool) (|C2_1| Int) (|.x.472| Int) (|.x.470| Int) (|.x.458| Int) (|.x.448| Int) (|.x.446| Int) (|.x.444| Int) (|.x.442| (Array Int Int)) (|.x.440| Int) (|.x.438| (Array Int Int)) (|.x.435| Int) (|.x.436| Int) (|.x.443| Int) (|.x.474| Int) (|.x.437| (Array Int Int)) (|.x.441| (Array Int Int)) (|.x.451| Int) (|.x.475| Int) (|.x.456| Int) (|.x.459| Int) (|.x.460| Int) (|.x.466| Int) (|.x.464| Int) (|.x.469| Int) (|.x.479| Int) (|.x.452| Int) (|.x.483| Int) (|.x.461| Int) (|.x.457| Int) (|B2_8| Bool) (|.x.450| Int) (|.x.471| Int) (|.x.480| Int) (|.x.484| Int) (|.x.453| Int) (|.x.486| Int) (|.loc.5| Bool) (|.x.434| Int) (|.x.439| Int) (|.x.445| Int) (|.x.447| Int) (|.x.449| Int) (|.x.454| Int) (|.x.455| Int) (|.x.462| Int) (|.x.463| Int) (|.x.465| Int) (|.x.467| Int) (|.x.468| Int) (|.x.473| Int) (|.x.476| Int) (|.x.477| Int) (|.x.478| Int) (|.x.481| Int) (|.x.482| Int) (|.loc.6| Bool) (|.x.485| Int) (|.xtv.1| Int)) (=> (state |A_3| |B_3| |C_3| |D_3| |E_3| |F_3| |G_3| |H_3| |I_3| |J_3| |K_3| |L_3| |M_3| |N_3| |O_3| |P_3| |Q_3| |R_3| |S_3| |T_3| |U_3| |V_3| |W_3| |X_3| |Y_3| |Z_3| |A1_3| |B1_3| |C1_3| |D1_3| |C2_2| |F1_3| |G1_3| |H1_3| |I1_3| |J1_3| |K1_3| |L1_3| |M1_3| |N1_3| |O1_3| |P1_3| |Q1_3| |R1_3| |S1_3| |T1_3| |U1_3| |V1_3| |W1_3| |X1_3| |Y1_3| |Z1_3| |A2_3| |B2_3| |.loc.3| |.loc.4| |C2_1|) (not (and B2_3 (and .loc.3 .loc.4))))))
(check-sat)
